; benchmark generated from python API
(set-info :status unknown)
(declare-fun S_1 () Real)
(declare-fun A_1 () Real)
(declare-fun L_1 () Real)
(declare-fun S_3 () Real)
(declare-fun C () Real)
(declare-fun S_5 () Real)
(declare-fun S_4 () Real)
(declare-fun S_0 () Real)
(declare-fun S_2 () Real)
(declare-fun L_0 () Real)
(declare-fun A_0 () Real)
(declare-fun A_2 () Real)
(declare-fun A_3 () Real)
(declare-fun A_4 () Real)
(declare-fun A_5 () Real)
(assert
 (let (($x39 (>= L_0 0.0)))
 (let (($x834 (>= C 5.0)))
 (let (($x56 (= L_1 L_0)))
 (let (($x7384 (or $x56 (not (<= 0.0 (+ L_1 (* (- 1.0) A_1) S_5 (* (- 1.0) C)))))))
 (let (($x2138 (<= (+ (* (- 1.0) L_1) A_1 (* 2.0 C) (* (- 1.0) S_4)) 0.0)))
 (let (($x1961 (<= (+ (* (- 1.0) L_1) A_1 (* (- 1.0) S_5) (* 3.0 C)) 0.0)))
 (let (($x618 (or (not (<= 0.0 (+ L_1 (* (- 1.0) A_1) C S_0))) (<= (+ (* (- 1.0) L_1) A_1 (* (- 1.0) S_2)) 0.0))))
 (let (($x5570 (<= 0.0 (+ L_1 (* (- 1.0) A_1) C S_0))))
 (let (($x507 (or (<= (+ (* 2.0 C) (* (- 1.0) S_3) S_0) 0.0) (<= (+ (* (- 1.0) L_1) A_1 C (* (- 1.0) S_3)) 0.0))))
 (let (($x140 (>= S_5 S_4)))
 (let (($x128 (>= S_1 S_0)))
 (let (($x131 (>= S_2 S_1)))
 (let (($x134 (>= S_3 S_2)))
 (let (($x137 (>= S_4 S_3)))
 (let (($x142 (>= A_1 A_0)))
 (let (($x144 (>= A_3 A_2)))
 (let (($x145 (>= A_4 A_3)))
 (let (($x146 (>= A_5 A_4)))
 (and (<= (+ A_1 (* (- 1.0) L_1)) S_5) $x146 $x145 $x144 $x142 $x137 $x134 $x131 $x128 $x140 (or $x56 (not (<= 0.0 (+ (* (- 1.0) L_1) L_0)))) (<= (+ (* (- 2.0) C) (* (- 1.0) A_0) S_2 L_0) 0.0) $x507 (or $x5570 (<= (+ C (* (- 1.0) S_2) S_0) 0.0)) $x618 (or (<= (+ (* (- 1.0) S_5) (* 4.0 C) S_0) 0.0) $x1961) (or (<= (+ (* 3.0 C) (* (- 1.0) S_4) S_0) 0.0) $x2138) (<= (+ S_5 (* (- 4.0) C) (* (- 1.0) S_2)) 0.0) (<= (+ (* (- 3.0) C) S_3 (* (- 1.0) S_1)) 0.0) (<= (+ (* (- 2.0) C) S_2 (* (- 1.0) S_1)) 0.0) (<= (+ (* (- 3.0) C) S_4 (* (- 1.0) S_2)) 0.0) (<= (+ (* (- 4.0) C) S_4 (* (- 1.0) S_1)) 0.0) (<= (+ S_5 (* (- 5.0) C) (* (- 1.0) S_1)) 0.0) $x7384 (<= (+ (* (- 1.0) C) (* (- 1.0) A_0) S_1 L_0) 0.0) (<= (+ (* (- 1.0) A_0) (* (- 3.0) C) S_3 L_0) 0.0) (<= (+ (* (- 5.0) C) S_4 (* (- 1.0) S_0)) 0.0) (<= (+ (* (- 1.0) A_0) (* (- 4.0) C) S_4 L_0) 0.0) (<= (+ S_5 (* (- 6.0) C) (* (- 1.0) S_0)) 0.0) (<= (+ S_5 (* (- 5.0) C) (* (- 1.0) A_0) L_0) 0.0) (<= (+ (* (- 2.0) C) S_1 (* (- 1.0) S_0)) 0.0) (<= (+ (* (- 3.0) C) S_2 (* (- 1.0) S_0)) 0.0) $x834 $x39 (not (>= (+ L_1 S_5 (* (- 1.0) A_2)) 0.0)) (<= (+ (* (- 1.0) A_0) S_0 L_0) 0.0) (<= (+ (* (- 1.0) S_5) C S_3) 0.0) (<= (+ L_1 (* (- 1.0) A_1) (* (- 1.0) C) S_2) 0.0) (<= (+ C (* (- 1.0) S_4) S_2) 0.0) (<= (+ (* (- 1.0) S_5) (* 2.0 C) S_2) 0.0) (<= (+ S_5 (* (- 2.0) C) (* (- 1.0) S_4)) 0.0) (<= (+ C (* (- 1.0) S_3) S_1) 0.0) (<= (+ (* (- 2.0) C) S_3 (* (- 1.0) S_2)) 0.0) (<= (+ (* 2.0 C) (* (- 1.0) S_4) S_1) 0.0) (<= (+ (* (- 1.0) S_5) (* 3.0 C) S_1) 0.0) (<= (+ (* (- 4.0) C) S_3 (* (- 1.0) S_0)) 0.0) (<= (+ L_1 (* (- 1.0) A_1) (* (- 2.0) C) S_3) 0.0) (<= (+ L_1 (* (- 1.0) A_1) S_5 (* (- 4.0) C)) 0.0) (<= (+ L_1 (* (- 1.0) A_1) (* (- 3.0) C) S_4) 0.0) (<= (+ (* (- 2.0) C) S_4 (* (- 1.0) S_3)) 0.0) (<= (+ S_5 (* (- 3.0) C) (* (- 1.0) S_3)) 0.0) (<= (+ L_1 (* (- 1.0) A_1) S_1) 0.0)))))))))))))))))))))
(check-sat)
